p cnf 152 444
a 45 46 52 51 48 49 50 23 0
e 15 44 13 6 21 16 19 20 17 18 9 8 27 14 12 7 5 4 1 2 3 0
a 39 40 0
e 41 42 43 47 0
a 22 32 31 28 29 30 0
e 53 33 10 11 55 56 57 58 59 60 61 62 63 64 65 66 67 68 69 70 71 72 73 74 75 76 77 78 79 80 81 82 83 84 85 86 87 88 89 90 91 92 93 94 95 96 97 98 99 100 101 102 103 104 105 106 107 108 109 110 111 112 113 114 115 116 117 118 119 120 121 122 123 124 125 126 127 128 129 130 131 132 133 134 135 136 137 138 139 140 141 142 143 144 145 146 147 148 149 150 151 152 0
d 54 23 22 0
d 24 23 22 0
d 25 23 22 0
d 26 23 22 0
d 38 39 40 32 31 28 29 30 22 0
d 37 39 40 32 31 28 29 30 22 0
d 34 39 40 32 31 28 29 30 22 0
d 35 39 40 32 31 28 29 30 22 0
d 36 39 40 32 31 28 29 30 22 0
-8 33 37 -26 0
33 38 -26 -9 0
36 33 -26 -12 0
33 35 -14 -26 0
33 34 -27 -26 0
33 27 -26 -34 0
33 14 -35 -26 0
33 12 -36 -26 0
8 33 -37 -26 0
9 33 -38 -26 0
20 -15 0
18 -13 0
-44 17 0
21 -41 0
19 -43 0
-42 16 0
47 53 54 1 -34 0
47 53 54 2 -35 0
47 53 54 3 -36 0
47 53 54 -37 4 0
47 53 54 -38 5 0
34 -1 47 53 54 0
35 -2 47 53 54 0
36 -3 47 53 54 0
-4 37 47 53 54 0
-5 38 47 53 54 0
-23 6 0
-23 7 0
23 -2 0
-3 23 0
-5 23 0
4 23 0
1 23 0
-10 57 0
60 -11 0
61 1 0
-61 -1 0
62 2 0
-2 -62 0
63 3 0
-3 -63 0
64 4 0
-4 -64 0
65 5 0
-5 -65 0
-2 6 0
-6 2 0
95 -3 0
3 -95 0
96 -2 0
2 -96 0
-5 97 7 0
-97 5 0
-7 -97 0
-7 -4 98 0
-98 4 0
-98 7 0
-4 99 7 0
-99 4 0
-7 -99 0
-7 -5 100 0
-100 5 0
-100 7 0
10 7 0
-10 -7 0
11 7 0
-7 -11 0
101 7 -13 -1 0
-101 13 0
-101 1 0
-101 -7 0
102 -7 -3 0
3 -102 0
7 -102 0
13 89 -87 0
87 -13 0
-89 -13 0
103 -15 7 -1 0
15 -103 0
1 -103 0
-7 -103 0
-7 104 -2 0
2 -104 0
-104 7 0
88 15 -87 0
87 -15 0
-15 -88 0
-4 16 0
-16 4 0
-5 17 0
-17 5 0
18 -4 0
-18 4 0
19 -5 0
5 -19 0
20 -4 0
4 -20 0
21 -5 0
5 -21 0
66 22 0
-22 -66 0
67 23 0
-67 -23 0
105 23 0
-23 -105 0
-22 106 0
-106 22 0
23 -22 107 0
-107 22 0
-23 -107 0
-23 22 108 0
-108 23 0
-108 -22 0
-25 -24 -22 23 26 0
22 -26 0
-26 24 0
25 -26 0
-23 -26 0
-7 27 -1 0
1 -27 0
-27 7 0
28 68 0
-68 -28 0
69 29 0
-69 -29 0
70 30 0
-30 -70 0
71 31 0
-31 -71 0
32 72 0
-32 -72 0
109 1 -28 0
-109 28 0
-109 -1 0
110 2 -29 0
29 -110 0
-2 -110 0
-30 111 3 0
30 -111 0
-3 -111 0
-31 112 4 0
-112 31 0
-4 -112 0
-32 113 5 0
32 -113 0
-5 -113 0
28 114 -1 0
1 -114 0
-114 -28 0
29 -2 115 0
-115 2 0
-115 -29 0
-3 30 116 0
-116 3 0
-116 -30 0
117 -4 31 0
-117 4 0
-117 -31 0
32 118 -5 0
5 -118 0
-32 -118 0
34 73 0
-73 -34 0
35 74 0
-74 -35 0
36 75 0
-75 -36 0
37 76 0
-76 -37 0
77 38 0
-77 -38 0
78 39 0
-78 -39 0
40 79 0
-79 -40 0
39 40 -21 119 7 0
21 -119 0
-7 -119 0
-40 -119 0
-119 -39 0
-91 120 92 0
-120 91 0
-92 -120 0
40 -16 -39 121 7 0
-121 16 0
39 -121 0
-7 -121 0
-121 -40 0
94 -91 122 0
-122 91 0
-122 -94 0
39 -19 -40 123 7 0
19 -123 0
-123 40 0
-7 -123 0
-123 -39 0
93 -91 124 0
-124 91 0
-93 -124 0
-87 90 44 0
-44 87 0
-44 -90 0
80 45 0
-45 -80 0
46 81 0
-46 -81 0
125 -45 39 0
-125 45 0
-125 -39 0
-46 126 40 0
46 -126 0
-40 -126 0
127 45 -39 0
39 -127 0
-45 -127 0
46 128 -40 0
40 -128 0
-46 -128 0
48 82 0
-82 -48 0
49 83 0
-83 -49 0
50 84 0
-84 -50 0
85 51 0
-85 -51 0
86 52 0
-52 -86 0
129 -48 28 0
48 -129 0
-28 -129 0
29 130 -49 0
49 -130 0
-130 -29 0
30 -50 131 0
-131 50 0
-30 -131 0
-51 31 132 0
-132 51 0
-132 -31 0
133 -52 32 0
-133 52 0
-133 -32 0
134 48 -28 0
28 -134 0
-48 -134 0
49 135 -29 0
29 -135 0
-49 -135 0
-30 136 50 0
-136 30 0
-50 -136 0
-31 137 51 0
-137 31 0
-51 -137 0
-32 138 52 0
32 -138 0
-52 -138 0
-23 22 139 0
-139 23 0
-139 -22 0
-22 23 140 0
-140 22 0
-140 -23 0
141 -15 0
-141 15 0
142 -13 0
13 -142 0
143 -44 0
44 -143 0
144 -15 -13 0
15 -144 0
13 -144 0
-44 -15 145 0
-145 15 0
-145 44 0
-44 146 -13 0
13 -146 0
-146 44 0
56 57 -55 0
55 -57 0
-57 -56 0
-41 147 0
-147 41 0
-43 148 0
-148 43 0
149 -42 0
-149 42 0
150 -43 -41 0
41 -150 0
43 -150 0
151 -42 -41 0
41 -151 0
42 -151 0
-42 152 -43 0
43 -152 0
42 -152 0
-58 59 60 0
-60 58 0
-60 -59 0
61 1 0
-61 -1 0
62 2 0
-2 -62 0
63 3 0
-3 -63 0
64 4 0
-4 -64 0
65 5 0
-5 -65 0
22 66 0
-66 -22 0
23 67 0
-23 -67 0
28 68 0
-68 -28 0
69 29 0
-69 -29 0
70 30 0
-30 -70 0
71 31 0
-31 -71 0
32 72 0
-32 -72 0
34 73 0
-73 -34 0
35 74 0
-74 -35 0
36 75 0
-75 -36 0
37 76 0
-76 -37 0
77 38 0
-77 -38 0
78 39 0
-39 -78 0
79 40 0
-40 -79 0
80 45 0
-45 -80 0
46 81 0
-46 -81 0
48 82 0
-82 -48 0
49 83 0
-83 -49 0
50 84 0
-84 -50 0
85 51 0
-85 -51 0
86 52 0
-52 -86 0
-10 87 0
10 -87 0
88 15 0
-15 -88 0
13 89 0
-89 -13 0
90 44 0
-44 -90 0
91 -11 0
11 -91 0
41 92 0
-92 -41 0
93 43 0
-93 -43 0
94 42 0
-42 -94 0
-7 95 96 0
-95 7 0
-96 7 0
-8 97 98 0
8 -97 0
8 -98 0
100 99 -9 0
9 -99 0
9 -100 0
101 102 -12 0
-101 12 0
12 -102 0
103 104 -14 0
14 -103 0
14 -104 0
-24 105 106 0
-105 24 0
-106 24 0
108 107 -25 0
25 -107 0
25 -108 0
109 110 111 112 113 114 115 116 117 118 -33 0
-109 33 0
33 -110 0
33 -111 0
33 -112 0
33 -113 0
33 -114 0
33 -115 0
33 -116 0
-117 33 0
33 -118 0
119 120 -41 0
41 -119 0
41 -120 0
121 -42 122 0
-121 42 0
-122 42 0
-43 123 124 0
-123 43 0
-124 43 0
125 126 127 128 -47 0
-125 47 0
47 -126 0
47 -127 0
47 -128 0
129 130 131 132 133 -53 134 135 136 137 138 0
-129 53 0
-130 53 0
-131 53 0
-132 53 0
-133 53 0
-134 53 0
-135 53 0
-136 53 0
-137 53 0
-138 53 0
-54 139 140 0
54 -139 0
54 -140 0
141 142 143 -55 0
-141 55 0
55 -142 0
55 -143 0
144 145 146 -56 0
56 -144 0
56 -145 0
56 -146 0
149 -58 147 148 0
-147 58 0
-148 58 0
-149 58 0
150 151 -59 152 0
59 -150 0
59 -151 0
-152 59 0
